NAME          BLANK   
ROWS
 N  OBJROW
 L  R0000000
COLUMNS
    C0000000  OBJROW     -816.         R0000000  332.        
    C0000001  OBJROW     -651.         R0000000  150.        
    C0000002  OBJROW     -937.         R0000000  158.        
    C0000003  OBJROW     -896.         R0000000  451.        
    C0000004  OBJROW     -70.          R0000000  115.        
    C0000005  OBJROW     -885.         R0000000  480.        
    C0000006  OBJROW     -119.         R0000000  438.        
    C0000007  OBJROW     -172.         R0000000  597.        
    C0000008  OBJROW     -362.         R0000000  797.        
    C0000009  OBJROW     -365.         R0000000  527.        
    C0000010  OBJROW     -53.          R0000000  822.        
    C0000011  OBJROW     -38.          R0000000  803.        
    C0000012  OBJROW     -134.         R0000000  815.        
    C0000013  OBJROW     -91.          R0000000  343.        
    C0000014  OBJROW     -126.         R0000000  506.        
    C0000015  OBJROW     -259.         R0000000  375.        
RHS
    RHS       R0000000  16539.      
BOUNDS
 BV BOUND     C0000000  1.          
 BV BOUND     C0000001  1.          
 BV BOUND     C0000002  1.          
 BV BOUND     C0000003  1.          
 BV BOUND     C0000004  1.          
 BV BOUND     C0000005  1.          
 BV BOUND     C0000006  1.          
 BV BOUND     C0000007  1.          
 BV BOUND     C0000008  1.          
 BV BOUND     C0000009  1.          
 BV BOUND     C0000010  1.          
 BV BOUND     C0000011  1.          
 BV BOUND     C0000012  1.          
 BV BOUND     C0000013  1.          
 BV BOUND     C0000014  1.          
 BV BOUND     C0000015  1.          
ENDATA
